4
75 482 499 191 198 216 219 221 237 238 239 242 243 255 277 284 289 301 310 313 316 330 340 352 362 377 385 405 420 421 442 445 451 456 463 464 465 471 472 474 475 478 479 484 486 487 488 490 496 498 502 503 505 506 507 508 509 510 511 512 513 514 515 516 517 519 520 521 522 523 524 525 526 527 528 529
7 481 482 485 491 499 501 477
4 384 410 440 477
54 364 369 370 373 379 383 392 393 394 395 399 406 411 417 427 430 432 439 441 444 446 448 449 453 454 455 457 458 460 461 462 466 467 468 469 473 476 480 483 489 492 493 494 495 497 500 504 518 530 531 481 485 491 501
10